
  22   10
  10   10   10   10   10   10   10   10   10   10

   0   0   0   0   0   0   0   0   0   0   0   5 2 6 8 9 10 
   1   0  10   0   0   0   0   0   0   0   0   2 16 3 
   4  10   0   0   0   0   0   0   0   0   0   3 21 5 4 
   1   0   0   0   0   0   0   0  10   0   0   3 14 11 7 
   5   0   0   0  10   0   0   0   0   0   0   4 20 14 13 12 
  10  10   0   0   0   0   0   0   0   0   0   3 21 16 11 
   9   0   0  10   0   0   0   0   0   0   0   2 20 12 
   9   0   0   0   0   0   0   0   0   0  10   2 20 12 
   4  10   0   0   0   0   0   0   0   0   0   2 15 12 
   1   0   0   0   0   0   0   0   0  10   0   1 11 
   7   0   0   0   0   0   0   0  10   0   0   2 15 13 
   4   0   0   0   0   0   0   0   0  10   0   3 19 18 17 
   3  10   0   0   0   0   0   0   0   0   0   2 18 17 
   6   0   0   0   0   0   0   0   0  10   0   2 18 17 
   9   0   0   0  10   0   0   0   0   0   0   1 18 
   9   0   0   0   0   0   0   0   0  10   0   1 17 
  10   0   0  10   0   0   0   0   0   0   0   1 22
   5   0   0   0   0   0   0   0   0   0  10   1 22
   1   0   0   0  10   0   0   0   0   0   0   1 22
   8   0   0   0   0  10   0   0   0   0   0   1 22
   7   0   0   0   0   0   0   0  10   0   0   1 22
   0   0   0   0   0   0   0   0   0   0   0   0 
